NAME : C-n15-k5
CAPACITY : 957
NODE_COORD_SECTION
1   157   260
2   62   274
3   283   151
4   103   342
5   162   436
6   363   117
7   473   409
8   177   159
9   366   157
10   474   249
11   459   306
12   375   95
13   346   199
14   126   447
15   428   300
DEMAND_SECTION
1   0
2   83
3   88
4   95
5   83
6   24
7   48
8   39
9   43
10   28
11   86
12   51
13   26
14   74
15   60
DEPOT_SECTION
    1
    -1
EOF